
Gurobi 7.5.1 (mac64, Python) logging started Wed Oct 11 16:49:18 2017

Academic license - for non-commercial use only

Gurobi 7.5.1 (mac64, Python) logging started Wed Oct 11 16:49:37 2017

Academic license - for non-commercial use only

Gurobi 7.5.1 (mac64, Python) logging started Wed Oct 11 16:49:56 2017

Academic license - for non-commercial use only

Gurobi 7.5.1 (mac64, Python) logging started Wed Oct 11 16:50:43 2017

Academic license - for non-commercial use only

Gurobi 7.5.1 (mac64, Python) logging started Wed Oct 11 16:52:51 2017

Academic license - for non-commercial use only

Gurobi 7.5.1 (mac64, Python) logging started Wed Oct 11 16:53:15 2017

Academic license - for non-commercial use only

Gurobi 7.5.1 (mac64, Python) logging started Wed Oct 11 16:53:26 2017

Academic license - for non-commercial use only

Gurobi 7.5.1 (mac64, Python) logging started Wed Oct 11 16:53:57 2017

Academic license - for non-commercial use only

Gurobi 7.5.1 (mac64, Python) logging started Wed Oct 11 16:54:03 2017

Academic license - for non-commercial use only

Gurobi 7.5.1 (mac64, Python) logging started Wed Oct 11 16:54:25 2017

Academic license - for non-commercial use only

Gurobi 7.5.1 (mac64, Python) logging started Wed Oct 11 17:14:52 2017

Academic license - for non-commercial use only

Gurobi 7.5.1 (mac64, Python) logging started Wed Oct 11 17:15:29 2017

Academic license - for non-commercial use only

Gurobi 7.5.1 (mac64, Python) logging started Wed Oct 11 17:22:10 2017

Academic license - for non-commercial use only
